# Solution for model count
# Objective value = 10
z#1 0
z#2 0
z#3 0
z#4 0
z#5 0
z#6 1
z#7 0
z#8 0
z#9 1
z#10 0
z#11 1
z#12 0
z#13 1
z#14 1
z#15 0
z#16 0
z#17 0
z#18 0
z#19 1
z#20 1
z#21 1
z#22 0
z#23 1
z#24 1
x#24 824
x#23 967
x#22 0
x#21 1346
x#20 72
x#19 1575
x#18 0
x#17 0
x#16 0
x#15 0
x#14 229
x#13 1639
x#12 0
x#11 752
x#10 0
x#9 920
x#8 0
x#7 0
x#6 1676
x#5 0
x#4 0
x#3 0
x#2 0
x#1 0
